param set_len = 28;
param target_sum = 232411801;
param values := [0] 2209209 [1] 19471977 [2] 20734802 [3] 29188406 [4] 8349380 [5] 27523532 [6] 12559230 [7] 8276468 [8] 30409110 [9] 31276919 [10] 32634423 [11] 22990611 [12] 9098847 [13] 15867022 [14] 25939870 [15] 5732258 [16] 21218179 [17] 31552690 [18] 29232053 [19] 2759955 [20] 6862761 [21] 25697594 [22] 12075653 [23] 13833168 [24] 21971765 [25] 7795286 [26] 9000820 [27] 8942925 ;
